gen	cost
1	21017
2	20804
3	20744
4	20660
5	20538
6	20420
7	20319
8	20235
9	20207
10	20148
11	20056
12	19950
13	19863
14	19799
15	19740
16	19649
17	19610
18	19524
19	19466
20	19388
21	19230
22	19135
23	19120
24	19107
25	19092
26	19046
27	18972
28	18918
29	18895
30	18794
31	18764
32	18753
33	18713
34	18676
35	18662
36	18632
37	18562
38	18541
39	18454
40	18389
41	18389
42	18342
43	18338
44	18208
45	18200
46	18164
47	18106
48	18092
49	18054
50	18018

